Route #1: 1 24 10 29 8 33 14 21 11
Route #2: 1 15 36 32 2 45 7
Route #3: 1 39 3 26 13 40 37 43 17 4
Route #4: 1 25 38 35 31 41 20 27
Route #5: 1 30 44 19 18 28 12
Route #6: 1 23 5 9 42 34 22 6
cost 1049
